; benchmark generated from python API
(set-info :status unknown)
(declare-fun x_month () Int)
(declare-fun x_day () Int)
(declare-fun x_year () Int)
(assert
 (>= x_month 1))
(assert
 (<= x_month 12))
(assert
 (>= x_day 1))
(assert
 (<= x_day 31))
(assert
 (let (($x302 (<= x_day 28)))
 (let (($x1334 (<= x_day 29)))
 (let (($x215 (= (mod x_year 400) 0)))
 (let (($x218 (= (mod x_year 4) 0)))
 (let (($x595 (ite (or (and $x218 (and (distinct (mod x_year 100) 0) true)) $x215) $x1334 $x302)))
 (let (($x322 (= x_month 2)))
 (ite $x322 $x595 true))))))))
(assert
 (let (($x594 (<= x_day 30)))
 (let (($x564 (or (= x_month 4) (= x_month 6) (= x_month 9) (= x_month 11))))
 (ite $x564 $x594 true))))
(assert
 (let (($x621 (= x_year 2023)))
 (let (($x1230 (and $x621 (or (> x_month 1) (and (= x_month 1) (>= x_day 31))))))
 (or (> x_year 2023) $x1230))))
(assert
 (let ((?x301 (+ (mod (- (+ x_month (+ (* 0 12) 1)) 1) 12) 1)))
 (let ((?x415 (ite (or (= ?x301 4) (= ?x301 6) (= ?x301 9) (= ?x301 11)) 30 31)))
 (let ((?x1154 (+ 0 (div (- (+ x_month (+ (* 0 12) 1)) 1) 12))))
 (let ((?x1357 (+ x_year ?x1154)))
 (let (($x1092 (or (and (= (mod ?x1357 4) 0) (and (distinct (mod ?x1357 100) 0) true)) (= (mod ?x1357 400) 0))))
 (let ((?x1340 (ite (= ?x301 2) (ite $x1092 29 28) ?x415)))
 (let ((?x1198 (ite (< x_day 1) 1 (ite (> x_day ?x1340) ?x1340 x_day))))
 (let ((?x1162 (ite (< ?x1198 1) 1 (ite (> ?x1198 ?x1340) ?x1340 ?x1198))))
 (let ((?x1339 (ite (= 2 ?x301) (ite $x1092 31 31) (ite (= 1 ?x301) (ite $x1092 0 0) 0))))
 (let ((?x1093 (ite (= 4 ?x301) (ite $x1092 91 90) (ite (= 3 ?x301) (ite $x1092 60 59) ?x1339))))
 (let ((?x1210 (ite (= 6 ?x301) (ite $x1092 152 151) (ite (= 5 ?x301) (ite $x1092 121 120) ?x1093))))
 (let ((?x981 (ite (= 8 ?x301) (ite $x1092 213 212) (ite (= 7 ?x301) (ite $x1092 182 181) ?x1210))))
 (let ((?x212 (ite (= 10 ?x301) (ite $x1092 274 273) (ite (= 9 ?x301) (ite $x1092 244 243) ?x981))))
 (let ((?x1144 (ite (= 12 ?x301) (ite $x1092 335 334) (ite (= 11 ?x301) (ite $x1092 305 304) ?x212))))
 (let ((?x1080 (- (+ (* 365 (- ?x1357 1)) (div (- ?x1357 1) 4)) (div (- ?x1357 1) 100))))
 (let ((?x650 (- (+ (+ (+ ?x1080 (div (- ?x1357 1) 400)) ?x1144) (- ?x1162 1)) 730179)))
 (let ((?x1370 (+ (+ ?x650 0) 730179)))
 (let ((?x652 (mod ?x1370 146097)))
 (let ((?x1190 (div ?x652 36524)))
 (let ((?x739 (ite (<= 4 ?x1190) 3 ?x1190)))
 (let ((?x334 (- ?x652 (* ?x739 36524))))
 (let ((?x265 (mod ?x334 1461)))
 (let ((?x1087 (div ?x265 365)))
 (let ((?x1083 (ite (<= 4 ?x1087) 3 ?x1087)))
 (let ((?x1358 (+ (+ (* (div ?x1370 146097) 400) (* ?x739 100)) (* (div ?x334 1461) 4))))
 (let ((?x1250 (+ (+ ?x1358 ?x1083) 1)))
 (let (($x895 (or (and (= (mod ?x1250 4) 0) (and (distinct (mod ?x1250 100) 0) true)) (= (mod ?x1250 400) 0))))
 (let ((?x1343 (- ?x265 (* ?x1083 365))))
 (let ((?x764 (ite $x895 31 31)))
 (let (($x606 (>= ?x1343 ?x764)))
 (let ((?x658 (ite $x606 (+ (- ?x1343 ?x764) 1) (+ (- ?x1343 (ite $x895 0 0)) 1))))
 (let ((?x1290 (ite $x895 60 59)))
 (let (($x782 (>= ?x1343 ?x1290)))
 (let ((?x838 (ite $x895 91 90)))
 (let (($x766 (>= ?x1343 ?x838)))
 (let ((?x611 (ite $x766 (+ (- ?x1343 ?x838) 1) (ite $x782 (+ (- ?x1343 ?x1290) 1) ?x658))))
 (let ((?x695 (ite $x895 121 120)))
 (let (($x602 (>= ?x1343 ?x695)))
 (let ((?x770 (ite $x895 152 151)))
 (let (($x716 (>= ?x1343 ?x770)))
 (let ((?x655 (ite $x716 (+ (- ?x1343 ?x770) 1) (ite $x602 (+ (- ?x1343 ?x695) 1) ?x611))))
 (let ((?x614 (ite $x895 182 181)))
 (let (($x709 (>= ?x1343 ?x614)))
 (let ((?x608 (ite $x895 213 212)))
 (let (($x983 (>= ?x1343 ?x608)))
 (let ((?x619 (ite $x983 (+ (- ?x1343 ?x608) 1) (ite $x709 (+ (- ?x1343 ?x614) 1) ?x655))))
 (let ((?x781 (ite $x895 244 243)))
 (let (($x696 (>= ?x1343 ?x781)))
 (let ((?x773 (ite $x895 274 273)))
 (let (($x751 (>= ?x1343 ?x773)))
 (let ((?x585 (ite $x751 (+ (- ?x1343 ?x773) 1) (ite $x696 (+ (- ?x1343 ?x781) 1) ?x619))))
 (let ((?x821 (ite $x895 305 304)))
 (let (($x209 (>= ?x1343 ?x821)))
 (let ((?x210 (ite $x895 335 334)))
 (let (($x769 (>= ?x1343 ?x210)))
 (let ((?x776 (ite $x769 (+ (- ?x1343 ?x210) 1) (ite $x209 (+ (- ?x1343 ?x821) 1) ?x585))))
 (let (($x1354 (= 0 0)))
 (let ((?x704 (ite $x602 5 (ite $x766 4 (ite $x782 3 (ite $x606 2 1))))))
 (let ((?x689 (ite $x696 9 (ite $x983 8 (ite $x709 7 (ite $x716 6 ?x704))))))
 (let ((?x775 (ite $x1354 ?x301 (ite $x769 12 (ite $x209 11 (ite $x751 10 ?x689))))))
 (let (($x1001 (or (< ?x775 3) (and (= ?x775 3) (<= (ite $x1354 ?x1162 ?x776) 1)))))
 (or (< (ite $x1354 ?x1357 ?x1250) 2023) (and (= (ite $x1354 ?x1357 ?x1250) 2023) $x1001))))))))))))))))))))))))))))))))))))))))))))))))))))))))))))))))
(assert
 (let (($x592 (= x_day 1)))
(let (($x322 (= x_month 2)))
(let (($x621 (= x_year 2023)))
(and $x621 $x322 $x592)))))
(check-sat)
